-0.2, 0.55, 2.5, 2.24, 1.6, -1.56, 0.96, 1.5
-0.3, 0.5, 1.3, 1.2, -0.5, 1.7, 0.5, 3
-0.3, 0.5, 1.3, 1.2, -0.5, 1.7, 2, 4
-0.3, 0.5, 1.3, 1.2, -0.5, 1.7, 0.5, 5
-0.3, 0.5, 1.3, 1.2, -0.5, 1.7, 2, 6
-0.3, 0.5, 1.3, 1.2, -0.5, 1.7, 0.5, 7
-0.3, 0.5, 1.3, 1.2, -0.5, 1.7, 2, 8
-0.3, 0.5, 1.3, 1.2, -0.5, 1.7, 0.5, 9
-0.3, 0.5, 1.3, 1.2, -0.5, 1.7, 2, 10
-0.3, 0.5, 1.3, 1.2, -0.5, 1.7, 0.5, 11
-0.3, 0.5, 1.3, 1.2, -0.5, 1.7, 2, 12
-0.3, 0.5, 1.3, 1.2, -0.5, 1.7, 0.5, 13
-0.3, 0.5, 1.3, 1.2, -0.5, 1.7, 2, 14
-0.3, 0.5, 1.3, 1.2, -0.5, 1.7, 0.5, 15
-0.3, 0.5, 1.3, 1.2, -0.5, 1.7, 2, 15
-0.3, 0.5, 1.3, 1.2, -0.5, 1.7, 0.5, 16
-0.3, 0.5, 1.3, 1.2, -0.5, 1.7, 2, 17
-0.3, 0.5, 1.3, 1.2, -0.5, 1.7, 0.5, 18
-0.3, 0.5, 1.3, 1.2, -0.5, 1.7, 2, 19
-0.3, 0.5, 1.3, 1.2, -0.5, 1.7, 0.5, 20
-0.3, 0.5, 1.3, 1.2, -0.5, 1.7, 2, 21
-0.3, 0.5, 1.3, 1.2, -0.5, 1.7, 0.5, 22
-0.3, 0.5, 1.3, 1.2, -0.5, 1.7, 2, 23
-0.3, 0.5, 1.3, 1.2, -0.5, 1.7, 0.5, 24
-0.3, 0.5, 1.3, 1.2, -0.5, 1.7, 2, 25
-0.3, 0.5, 1.3, 1.2, -0.5, 1.7, 0.5, 26
-0.3, 0.5, 1.3, 1.2, -0.5, 1.7, 2, 27
-0.3, 0.5, 1.3, 1.2, -0.5, 1.7, 0.5, 28
-0.3, 0.5, 1.3, 1.2, -0.5, 1.7, 2, 29
-0.3, 0.5, 1.3, 1.2, -0.5, 1.7, 0.5, 30
-0.3, 0.5, 1.3, 1.2, -0.5, 1.7, 2, 31
-0.3, 0.5, 1.3, 1.2, -0.5, 1.7, 0.5, 32
-0.3, 0.5, 1.3, 1.2, -0.5, 1.7, 2, 33
-0.3, 0.5, 1.3, 1.2, -0.5, 1.7, 0.5, 34
-0.3, 0.5, 1.3, 1.2, -0.5, 1.7, 2, 35
-0.3, 0.5, 1.3, 1.2, -0.5, 1.7, 0.5, 36
-0.3, 0.5, 1.3, 1.2, -0.5, 1.7, 2, 37
-0.3, 0.5, 1.3, 1.2, -0.5, 1.7, 0.5, 38
-0.3, 0.5, 1.3, 1.2, -0.5, 1.7, 2, 39
-0.3, 0.5, 1.3, 1.2, -0.5, 1.7, 0.5, 40
-0.3, 0.5, 1.3, 1.2, -0.5, 1.7, 2, 41
-0.3, 0.5, 1.3, 1.2, -0.5, 1.7, 0.5, 42
-0.3, 0.5, 1.3, 1.2, -0.5, 1.7, 2, 43
-0.3, 0.5, 1.3, 1.2, -0.5, 1.7, 0.5, 44
-0.3, 0.5, 1.3, 1.2, -0.5, 1.7, 2, 45
-0.3, 0.5, 1.3, 1.2, -0.5, 1.7, 0.5, 46
-0.3, 0.5, 1.3, 1.2, -0.5, 1.7, 2, 47
-0.3, 0.5, 1.3, 1.2, -0.5, 1.7, 0.5, 48
-0.3, 0.5, 1.3, 1.2, -0.5, 1.7, 2, 49
-0.3, 0.5, 1.3, 1.2, -0.5, 1.7, 0.5, 50
-0.3, 0.5, 1.3, 1.2, -0.5, 1.7, 2, 51
-0.3, 0.5, 1.3, 1.2, -0.5, 1.7, 0.5, 52
-0.3, 0.5, 1.3, 1.2, -0.5, 1.7, 2, 53
-0.3, 0.5, 1.3, 1.2, -0.5, 1.7, 0.5, 54
-0.3, 0.5, 1.3, 1.2, -0.5, 1.7, 2, 55
-0.3, 0.5, 1.3, 1.2, -0.5, 1.7, 0.5, 56
-0.3, 0.5, 1.3, 1.2, -0.5, 1.7, 2, 57
-0.3, 0.5, 1.3, 1.2, -0.5, 1.7, 0.5, 58

